Running for instance ./models/rc106.txt
Generating routes...
Atingindo numero maximo de execucoes. abrindo alpha
Atingindo numero maximo de execucoes. abrindo alpha
Maximo de execucoes sem resultados atingido. 4472 rotas geradas
Execution time:  158.333257  seconds
Academic license - for non-commercial use only
Warning: constraint name "Cliente esta na rota x1" has a space
Optimize a model with 26 rows, 4472 columns and 24193 nonzeros
Variable types: 0 continuous, 4472 integer (0 binary)
Coefficient statistics:
  Matrix range     [1e+00, 1e+00]
  Objective range  [6e+01, 2e+02]
  Bounds range     [1e+00, 1e+00]
  RHS range        [1e+00, 2e+01]
Found heuristic solution: objective 844.0971152
Presolve removed 1 rows and 2017 columns
Presolve time: 0.02s
Presolved: 25 rows, 2455 columns, 9910 nonzeros
Found heuristic solution: objective 833.7487710
Variable types: 0 continuous, 2455 integer (2455 binary)

Root relaxation: objective 4.330092e+02, 96 iterations, 0.00 seconds

    Nodes    |    Current Node    |     Objective Bounds      |     Work
 Expl Unexpl |  Obj  Depth IntInf | Incumbent    BestBd   Gap | It/Node Time

     0     0  433.00919    0    7  833.74877  433.00919  48.1%     -    0s
H    0     0                     488.7123292  433.00919  11.4%     -    0s
*    0     0               0     475.5285131  475.52851  0.00%     -    0s

Cutting planes:
  Clique: 2
  Mod-K: 2

Explored 1 nodes (124 simplex iterations) in 0.05 seconds
Thread count was 8 (of 8 available processors)

Solution count 3: 475.529 488.712 833.749 

Optimal solution found (tolerance 1.00e-04)
Best objective 4.755285131211e+02, best bound 4.755285131211e+02, gap 0.0000%

Routes:
19 20 22
12 11 9 13 10
14 15 16 17
2 5 8 7 6 3 1 4
23 21 18 25 24

Distance: 475.528513121
Execution time:  158.666036  seconds
